c colouring generated by benchmark framework
p edge 1225 2380
v 1 0
v 2 2
v 3 1
v 4 0
v 5 1
v 6 0
v 7 1
v 8 0
v 9 1
v 10 2
v 11 1
v 12 0
v 13 1
v 14 2
v 15 3
v 16 1
v 17 2
v 18 0
v 19 3
v 20 0
v 21 2
v 22 3
v 23 0
v 24 3
v 25 1
v 26 0
v 27 3
v 28 0
v 29 3
v 30 0
v 31 1
v 32 3
v 33 2
v 34 3
v 35 0
v 36 3
v 37 1
v 38 0
v 39 1
v 40 0
v 41 3
v 42 0
v 43 1
v 44 0
v 45 3
v 46 2
v 47 1
v 48 2
v 49 1
v 50 2
v 51 3
v 52 0
v 53 2
v 54 0
v 55 3
v 56 1
v 57 0
v 58 3
v 59 1
v 60 0
v 61 2
v 62 1
v 63 2
v 64 0
v 65 1
v 66 2
v 67 0
v 68 1
v 69 0
v 70 1
v 71 0
v 72 3
v 73 2
v 74 0
v 75 2
v 76 1
v 77 2
v 78 0
v 79 1
v 80 0
v 81 1
v 82 0
v 83 1
v 84 0
v 85 1
v 86 2
v 87 3
v 88 0
v 89 3
v 90 2
v 91 3
v 92 2
v 93 0
v 94 2
v 95 3
v 96 1
v 97 0
v 98 3
v 99 1
v 100 2
v 101 3
v 102 1
v 103 3
v 104 1
v 105 2
v 106 2
v 107 0
v 108 3
v 109 1
v 110 3
v 111 2
v 112 0
v 113 2
v 114 3
v 115 2
v 116 0
v 117 2
v 118 3
v 119 2
v 120 0
v 121 3
v 122 0
v 123 1
v 124 2
v 125 0
v 126 2
v 127 1
v 128 3
v 129 0
v 130 1
v 131 3
v 132 1
v 133 0
v 134 2
v 135 0
v 136 2
v 137 0
v 138 1
v 139 3
v 140 1
v 141 0
v 142 2
v 143 1
v 144 0
v 145 2
v 146 0
v 147 2
v 148 1
v 149 0
v 150 1
v 151 3
v 152 1
v 153 0
v 154 1
v 155 2
v 156 0
v 157 1
v 158 2
v 159 0
v 160 2
v 161 0
v 162 2
v 163 1
v 164 2
v 165 0
v 166 1
v 167 0
v 168 2
v 169 0
v 170 3
v 171 1
v 172 2
v 173 3
v 174 0
v 175 2
v 176 2
v 177 1
v 178 0
v 179 2
v 180 3
v 181 1
v 182 0
v 183 2
v 184 1
v 185 3
v 186 2
v 187 0
v 188 1
v 189 3
v 190 0
v 191 1
v 192 2
v 193 0
v 194 2
v 195 1
v 196 3
v 197 1
v 198 0
v 199 1
v 200 3
v 201 2
v 202 3
v 203 1
v 204 3
v 205 0
v 206 2
v 207 3
v 208 1
v 209 2
v 210 1
v 211 0
v 212 2
v 213 3
v 214 0
v 215 1
v 216 0
v 217 3
v 218 1
v 219 0
v 220 1
v 221 0
v 222 1
v 223 2
v 224 0
v 225 2
v 226 0
v 227 1
v 228 2
v 229 3
v 230 0
v 231 1
v 232 0
v 233 2
v 234 3
v 235 2
v 236 1
v 237 0
v 238 2
v 239 1
v 240 2
v 241 1
v 242 0
v 243 2
v 244 3
v 245 0
v 246 2
v 247 1
v 248 0
v 249 3
v 250 2
v 251 1
v 252 2
v 253 0
v 254 1
v 255 0
v 256 2
v 257 3
v 258 0
v 259 1
v 260 0
v 261 1
v 262 2
v 263 0
v 264 1
v 265 2
v 266 0
v 267 1
v 268 3
v 269 2
v 270 0
v 271 3
v 272 2
v 273 3
v 274 0
v 275 1
v 276 0
v 277 1
v 278 0
v 279 2
v 280 3
v 281 3
v 282 0
v 283 3
v 284 1
v 285 0
v 286 3
v 287 0
v 288 3
v 289 0
v 290 1
v 291 3
v 292 0
v 293 1
v 294 0
v 295 3
v 296 0
v 297 3
v 298 1
v 299 0
v 300 3
v 301 1
v 302 0
v 303 1
v 304 0
v 305 3
v 306 0
v 307 1
v 308 0
v 309 1
v 310 0
v 311 1
v 312 2
v 313 1
v 314 3
v 315 0
v 316 0
v 317 2
v 318 1
v 319 0
v 320 2
v 321 0
v 322 1
v 323 2
v 324 3
v 325 0
v 326 2
v 327 3
v 328 0
v 329 1
v 330 2
v 331 1
v 332 2
v 333 0
v 334 3
v 335 2
v 336 0
v 337 3
v 338 2
v 339 3
v 340 1
v 341 2
v 342 0
v 343 1
v 344 0
v 345 1
v 346 3
v 347 0
v 348 2
v 349 1
v 350 3
v 351 1
v 352 3
v 353 0
v 354 1
v 355 0
v 356 1
v 357 3
v 358 0
v 359 1
v 360 3
v 361 1
v 362 0
v 363 2
v 364 3
v 365 0
v 366 3
v 367 1
v 368 3
v 369 1
v 370 0
v 371 1
v 372 2
v 373 1
v 374 0
v 375 3
v 376 1
v 377 3
v 378 0
v 379 1
v 380 2
v 381 0
v 382 3
v 383 1
v 384 0
v 385 1
v 386 2
v 387 0
v 388 1
v 389 3
v 390 1
v 391 2
v 392 0
v 393 1
v 394 0
v 395 1
v 396 0
v 397 1
v 398 3
v 399 0
v 400 1
v 401 2
v 402 0
v 403 1
v 404 0
v 405 1
v 406 0
v 407 1
v 408 0
v 409 1
v 410 2
v 411 0
v 412 2
v 413 1
v 414 2
v 415 0
v 416 1
v 417 2
v 418 0
v 419 1
v 420 0
v 421 0
v 422 3
v 423 0
v 424 2
v 425 0
v 426 1
v 427 3
v 428 0
v 429 1
v 430 0
v 431 1
v 432 2
v 433 1
v 434 2
v 435 0
v 436 3
v 437 2
v 438 0
v 439 2
v 440 0
v 441 1
v 442 0
v 443 1
v 444 0
v 445 3
v 446 2
v 447 1
v 448 3
v 449 0
v 450 1
v 451 2
v 452 0
v 453 1
v 454 3
v 455 1
v 456 1
v 457 0
v 458 2
v 459 0
v 460 2
v 461 0
v 462 2
v 463 1
v 464 0
v 465 3
v 466 2
v 467 1
v 468 0
v 469 1
v 470 3
v 471 0
v 472 1
v 473 2
v 474 3
v 475 2
v 476 0
v 477 2
v 478 0
v 479 1
v 480 0
v 481 1
v 482 0
v 483 2
v 484 1
v 485 0
v 486 3
v 487 1
v 488 2
v 489 1
v 490 3
v 491 3
v 492 2
v 493 3
v 494 2
v 495 0
v 496 1
v 497 0
v 498 3
v 499 1
v 500 0
v 501 1
v 502 0
v 503 2
v 504 3
v 505 2
v 506 1
v 507 3
v 508 1
v 509 2
v 510 0
v 511 1
v 512 0
v 513 1
v 514 3
v 515 1
v 516 3
v 517 1
v 518 3
v 519 0
v 520 1
v 521 0
v 522 2
v 523 0
v 524 3
v 525 0
v 526 1
v 527 0
v 528 1
v 529 0
v 530 1
v 531 0
v 532 3
v 533 1
v 534 2
v 535 3
v 536 0
v 537 3
v 538 1
v 539 0
v 540 1
v 541 0
v 542 1
v 543 2
v 544 0
v 545 3
v 546 0
v 547 2
v 548 0
v 549 2
v 550 0
v 551 2
v 552 3
v 553 0
v 554 1
v 555 0
v 556 2
v 557 3
v 558 1
v 559 2
v 560 1
v 561 0
v 562 3
v 563 0
v 564 1
v 565 3
v 566 1
v 567 2
v 568 0
v 569 3
v 570 0
v 571 1
v 572 2
v 573 0
v 574 1
v 575 0
v 576 1
v 577 0
v 578 1
v 579 2
v 580 0
v 581 1
v 582 0
v 583 1
v 584 0
v 585 2
v 586 1
v 587 0
v 588 1
v 589 3
v 590 2
v 591 1
v 592 0
v 593 2
v 594 1
v 595 3
v 596 1
v 597 0
v 598 1
v 599 0
v 600 1
v 601 0
v 602 1
v 603 3
v 604 1
v 605 3
v 606 2
v 607 0
v 608 1
v 609 0
v 610 2
v 611 0
v 612 1
v 613 0
v 614 1
v 615 3
v 616 2
v 617 1
v 618 3
v 619 2
v 620 1
v 621 2
v 622 1
v 623 0
v 624 2
v 625 1
v 626 0
v 627 3
v 628 0
v 629 2
v 630 0
v 631 3
v 632 2
v 633 0
v 634 2
v 635 3
v 636 1
v 637 0
v 638 1
v 639 3
v 640 2
v 641 1
v 642 2
v 643 0
v 644 3
v 645 0
v 646 1
v 647 0
v 648 1
v 649 3
v 650 1
v 651 0
v 652 2
v 653 0
v 654 1
v 655 2
v 656 1
v 657 0
v 658 2
v 659 1
v 660 3
v 661 2
v 662 1
v 663 3
v 664 0
v 665 3
v 666 1
v 667 0
v 668 3
v 669 0
v 670 1
v 671 2
v 672 3
v 673 2
v 674 1
v 675 0
v 676 3
v 677 0
v 678 3
v 679 0
v 680 1
v 681 2
v 682 1
v 683 0
v 684 2
v 685 0
v 686 1
v 687 0
v 688 3
v 689 2
v 690 0
v 691 3
v 692 1
v 693 0
v 694 3
v 695 0
v 696 3
v 697 0
v 698 2
v 699 1
v 700 2
v 701 2
v 702 3
v 703 0
v 704 2
v 705 3
v 706 0
v 707 1
v 708 0
v 709 3
v 710 2
v 711 1
v 712 2
v 713 0
v 714 1
v 715 2
v 716 3
v 717 0
v 718 1
v 719 0
v 720 1
v 721 2
v 722 1
v 723 0
v 724 1
v 725 2
v 726 0
v 727 2
v 728 1
v 729 0
v 730 2
v 731 0
v 732 3
v 733 0
v 734 2
v 735 3
v 736 3
v 737 0
v 738 2
v 739 0
v 740 1
v 741 3
v 742 0
v 743 2
v 744 1
v 745 0
v 746 3
v 747 0
v 748 3
v 749 0
v 750 1
v 751 0
v 752 2
v 753 0
v 754 3
v 755 0
v 756 1
v 757 0
v 758 2
v 759 0
v 760 1
v 761 2
v 762 3
v 763 0
v 764 1
v 765 0
v 766 3
v 767 0
v 768 2
v 769 1
v 770 0
v 771 1
v 772 2
v 773 0
v 774 2
v 775 3
v 776 0
v 777 2
v 778 1
v 779 0
v 780 2
v 781 1
v 782 2
v 783 1
v 784 3
v 785 2
v 786 1
v 787 0
v 788 1
v 789 2
v 790 1
v 791 3
v 792 2
v 793 3
v 794 1
v 795 3
v 796 0
v 797 1
v 798 3
v 799 2
v 800 3
v 801 2
v 802 1
v 803 3
v 804 0
v 805 2
v 806 2
v 807 1
v 808 3
v 809 1
v 810 0
v 811 1
v 812 0
v 813 3
v 814 1
v 815 3
v 816 0
v 817 1
v 818 0
v 819 1
v 820 0
v 821 3
v 822 1
v 823 3
v 824 0
v 825 2
v 826 0
v 827 3
v 828 2
v 829 3
v 830 2
v 831 3
v 832 0
v 833 2
v 834 0
v 835 1
v 836 0
v 837 3
v 838 2
v 839 3
v 840 0
v 841 3
v 842 2
v 843 1
v 844 3
v 845 1
v 846 0
v 847 3
v 848 1
v 849 0
v 850 2
v 851 3
v 852 2
v 853 3
v 854 2
v 855 3
v 856 0
v 857 2
v 858 0
v 859 2
v 860 1
v 861 2
v 862 1
v 863 3
v 864 1
v 865 3
v 866 1
v 867 2
v 868 0
v 869 3
v 870 0
v 871 3
v 872 0
v 873 1
v 874 0
v 875 2
v 876 1
v 877 0
v 878 2
v 879 0
v 880 2
v 881 3
v 882 2
v 883 0
v 884 1
v 885 3
v 886 1
v 887 0
v 888 1
v 889 0
v 890 1
v 891 3
v 892 0
v 893 1
v 894 3
v 895 0
v 896 3
v 897 0
v 898 2
v 899 0
v 900 1
v 901 2
v 902 0
v 903 1
v 904 0
v 905 3
v 906 0
v 907 1
v 908 2
v 909 3
v 910 0
v 911 2
v 912 1
v 913 0
v 914 1
v 915 0
v 916 2
v 917 1
v 918 2
v 919 3
v 920 0
v 921 2
v 922 1
v 923 2
v 924 1
v 925 2
v 926 1
v 927 2
v 928 0
v 929 1
v 930 2
v 931 1
v 932 2
v 933 1
v 934 2
v 935 3
v 936 0
v 937 1
v 938 0
v 939 3
v 940 1
v 941 2
v 942 0
v 943 1
v 944 0
v 945 1
v 946 1
v 947 0
v 948 2
v 949 0
v 950 3
v 951 0
v 952 2
v 953 1
v 954 2
v 955 1
v 956 0
v 957 2
v 958 0
v 959 2
v 960 0
v 961 2
v 962 1
v 963 2
v 964 0
v 965 1
v 966 2
v 967 0
v 968 2
v 969 1
v 970 0
v 971 3
v 972 2
v 973 3
v 974 2
v 975 0
v 976 1
v 977 2
v 978 0
v 979 1
v 980 2
v 981 2
v 982 3
v 983 0
v 984 1
v 985 0
v 986 1
v 987 3
v 988 0
v 989 1
v 990 0
v 991 1
v 992 0
v 993 2
v 994 1
v 995 3
v 996 1
v 997 0
v 998 1
v 999 2
v 1000 0
v 1001 1
v 1002 2
v 1003 3
v 1004 0
v 1005 3
v 1006 1
v 1007 0
v 1008 1
v 1009 0
v 1010 1
v 1011 0
v 1012 1
v 1013 2
v 1014 0
v 1015 1
v 1016 0
v 1017 1
v 1018 2
v 1019 0
v 1020 2
v 1021 0
v 1022 1
v 1023 3
v 1024 2
v 1025 1
v 1026 2
v 1027 1
v 1028 0
v 1029 3
v 1030 0
v 1031 2
v 1032 1
v 1033 0
v 1034 1
v 1035 3
v 1036 0
v 1037 1
v 1038 0
v 1039 1
v 1040 2
v 1041 0
v 1042 2
v 1043 3
v 1044 1
v 1045 2
v 1046 1
v 1047 0
v 1048 3
v 1049 2
v 1050 3
v 1051 1
v 1052 0
v 1053 1
v 1054 3
v 1055 0
v 1056 3
v 1057 0
v 1058 1
v 1059 0
v 1060 2
v 1061 0
v 1062 2
v 1063 1
v 1064 0
v 1065 3
v 1066 1
v 1067 0
v 1068 3
v 1069 0
v 1070 1
v 1071 3
v 1072 2
v 1073 3
v 1074 2
v 1075 0
v 1076 1
v 1077 3
v 1078 1
v 1079 2
v 1080 0
v 1081 2
v 1082 3
v 1083 1
v 1084 3
v 1085 0
v 1086 0
v 1087 1
v 1088 2
v 1089 1
v 1090 2
v 1091 0
v 1092 1
v 1093 0
v 1094 3
v 1095 0
v 1096 2
v 1097 0
v 1098 3
v 1099 1
v 1100 0
v 1101 3
v 1102 1
v 1103 0
v 1104 2
v 1105 0
v 1106 1
v 1107 0
v 1108 1
v 1109 0
v 1110 3
v 1111 2
v 1112 0
v 1113 2
v 1114 1
v 1115 3
v 1116 0
v 1117 2
v 1118 0
v 1119 1
v 1120 2
v 1121 1
v 1122 0
v 1123 3
v 1124 0
v 1125 3
v 1126 1
v 1127 2
v 1128 1
v 1129 0
v 1130 2
v 1131 1
v 1132 2
v 1133 0
v 1134 3
v 1135 1
v 1136 0
v 1137 2
v 1138 3
v 1139 1
v 1140 2
v 1141 0
v 1142 1
v 1143 2
v 1144 1
v 1145 0
v 1146 1
v 1147 2
v 1148 0
v 1149 2
v 1150 0
v 1151 2
v 1152 0
v 1153 2
v 1154 3
v 1155 0
v 1156 0
v 1157 2
v 1158 0
v 1159 1
v 1160 0
v 1161 2
v 1162 1
v 1163 0
v 1164 2
v 1165 0
v 1166 3
v 1167 0
v 1168 2
v 1169 0
v 1170 3
v 1171 2
v 1172 1
v 1173 0
v 1174 2
v 1175 1
v 1176 2
v 1177 0
v 1178 1
v 1179 0
v 1180 1
v 1181 0
v 1182 3
v 1183 2
v 1184 0
v 1185 1
v 1186 3
v 1187 2
v 1188 1
v 1189 0
v 1190 1
v 1191 1
v 1192 0
v 1193 1
v 1194 2
v 1195 1
v 1196 3
v 1197 0
v 1198 1
v 1199 0
v 1200 1
v 1201 2
v 1202 3
v 1203 0
v 1204 1
v 1205 2
v 1206 0
v 1207 2
v 1208 1
v 1209 0
v 1210 2
v 1211 0
v 1212 3
v 1213 0
v 1214 3
v 1215 0
v 1216 2
v 1217 0
v 1218 3
v 1219 2
v 1220 3
v 1221 1
v 1222 0
v 1223 3
v 1224 1
v 1225 2
